(declare-const |K:131| Int)
(declare-const |b':100| Int)
(declare-const |a':120| Int)
(declare-const |e':64| Int)
(declare-const |c':84| Int)
(declare-const |d':72| Int)
(assert (and (or (not (and (<= (- |K:131|) 0) (<= |K:131| 0)))
                   (= (+ |b':100| -6) 0))
               (or (not (<= (+ (- |K:131|) 1) 0)) (= (+ |b':100| -6) 0))
               (or (not (and (<= (- |K:131|) 0) (<= |K:131| 0)))
                     (= (+ |d':72| -6) 0))
               (or (not (<= (+ (- |K:131|) 1) 0)) (= (+ |d':72| -6) 0))
               (or (not (and (<= (- |K:131|) 0) (<= |K:131| 0)))
                     (= (+ |c':84| -6) 0))
               (or (not (<= (+ (- |K:131|) 1) 0)) (= (+ |c':84| -6) 0))
               (or (not (<= (- |K:131|) 0)) (= (+ |a':120| (- |K:131|)) 0))
               (or (not (and (<= (- |K:131|) 0) (<= |K:131| 0)))
                     (= (+ |e':64| -6) 0))
               (or (not (<= (+ (- |K:131|) 1) 0)) (= (+ |e':64| -6) 0))
               (or (not (<= (- |K:131|) 0))
                     (<= (+ |e':64| (* -5 |K:131|) -6) 0))
               (or (not (<= (- |K:131|) 0))
                     (<= (+ |d':72| (* -5 |K:131|) -6) 0))
               (or (not (<= (- |K:131|) 0))
                     (<= (+ |c':84| (* -5 |K:131|) -6) 0))
               (or (not (<= (- |K:131|) 0))
                     (<= (+ |b':100| (* -5 |K:131|) -6) 0))
               (or (and (= |K:131| 0) (= (+ (- |e':64|) 6) 0)
                          (= (+ (- |d':72|) 6) 0) (= (+ (- |c':84|) 6) 0)
                          (= (+ (- |b':100|) 6) 0) (= (- |a':120|) 0))
                     (and (<= (+ (- |K:131|) 1) 0) (= (+ |e':64| -6) 0)
                            (= (+ |d':72| -6) 0) (= (+ |c':84| -6) 0)
                            (= (+ |b':100| -6) 0) (<= (+ |a':120| -6) 0)
                            (<= (+ (- |a':120|) 1) 0))) (<= (- |K:131|) 0)
               (< (- |e':64|) 0) (< (- |d':72|) 0) (< (- |c':84|) 0)
               (< (- |b':100|) 0) (<= (- |a':120|) 0)
               (<= (+ (- |a':120|) 6) 0) (= (+ |a':120| -6) 0)
               (not (= (+ |b':100| -6) 0))))
(check-sat)
